************************************************************************
file with basedata            : j9024_.bas
initial value random generator: 1698626280
************************************************************************
projects                      :  1
jobs (incl. supersource/sink ):  92
horizon                       :  509
RESOURCES
  - renewable                 :  4   R
  - nonrenewable              :  0   N
  - doubly constrained        :  0   D
************************************************************************
PROJECT INFORMATION:
pronr.  #jobs rel.date duedate tardcost  MPM-Time
    1     90      0       79       52       79
************************************************************************
PRECEDENCE RELATIONS:
jobnr.    #modes  #successors   successors
   1        1          3           2   3   4
   2        1          3           5   8  14
   3        1          3           6  13  56
   4        1          3          12  24  32
   5        1          3          10  11  43
   6        1          3           7   9  23
   7        1          3          15  27  44
   8        1          2          20  26
   9        1          2          39  47
  10        1          3          21  42  50
  11        1          3          16  17  52
  12        1          3          18  46  63
  13        1          1          60
  14        1          1          83
  15        1          3          28  33  45
  16        1          3          19  47  71
  17        1          3          22  35  79
  18        1          2          27  52
  19        1          3          25  30  31
  20        1          2          37  64
  21        1          1          61
  22        1          1          65
  23        1          2          31  40
  24        1          1          76
  25        1          2          54  57
  26        1          3          34  48  68
  27        1          2          31  82
  28        1          2          29  36
  29        1          2          57  66
  30        1          2          36  65
  31        1          1          84
  32        1          2          61  62
  33        1          2          38  59
  34        1          3          49  65  90
  35        1          3          41  75  77
  36        1          1          87
  37        1          1          62
  38        1          2          39  87
  39        1          1          71
  40        1          1          82
  41        1          1          73
  42        1          1          51
  43        1          2          55  64
  44        1          3          52  58  87
  45        1          3          53  67  77
  46        1          3          49  55  84
  47        1          3          54  67  74
  48        1          2          58  78
  49        1          1          53
  50        1          3          55  69  89
  51        1          2          53  79
  52        1          1          72
  53        1          1          54
  54        1          2          59  61
  55        1          2          67  72
  56        1          1          68
  57        1          1          83
  58        1          1          64
  59        1          1          85
  60        1          2          66  79
  61        1          2          75  80
  62        1          2          70  78
  63        1          2          73  76
  64        1          2          75  88
  65        1          1          70
  66        1          2          70  71
  67        1          1          78
  68        1          1          76
  69        1          3          80  83  84
  70        1          3          72  73  82
  71        1          2          74  81
  72        1          1          88
  73        1          2          74  86
  74        1          1          80
  75        1          1          89
  76        1          1          77
  77        1          1          81
  78        1          1          81
  79        1          1          85
  80        1          2          85  88
  81        1          1          90
  82        1          1          89
  83        1          1          86
  84        1          1          86
  85        1          1          91
  86        1          1          91
  87        1          1          90
  88        1          1          91
  89        1          1          92
  90        1          1          92
  91        1          1          92
  92        1          0        
************************************************************************
REQUESTS/DURATIONS:
jobnr. mode duration  R 1  R 2  R 3  R 4
------------------------------------------------------------------------
  1      1     0       0    0    0    0
  2      1     7       3    7    3    0
  3      1     8       0    0    2   10
  4      1     9       1    3    0    7
  5      1     5       1    0    9    0
  6      1    10       1    5    0    5
  7      1     5       9    8    6    4
  8      1     3       9    0    4    6
  9      1     7       0    1    6    0
 10      1     9       9    1    0    0
 11      1     3       0    0    3    0
 12      1     4       0    8    0    8
 13      1     1       3    0    0    0
 14      1     8       0    2    6    0
 15      1     4       2    0   10    0
 16      1     5       0    0    5    4
 17      1    10       0    4    6    0
 18      1     2       1    1    0    2
 19      1     6       5    0    2    0
 20      1     5       0   10    4    4
 21      1    10       0    3    0    0
 22      1     8       9    0    0    0
 23      1     6       0    3    9    0
 24      1     9       0   10    0    0
 25      1     5       6   10    0    2
 26      1     5      10    0    0    6
 27      1     8       4    5    8    0
 28      1     5       0    0    2    1
 29      1     9       0    0    3    1
 30      1     1       0    0    0    8
 31      1     9       9    9    0    0
 32      1     8       5    0   10    9
 33      1     3       0    8    1    0
 34      1     9       4    3    0    0
 35      1     1       0    2    0    0
 36      1     9       0    0    0    2
 37      1    10       2    9    1    7
 38      1     1       8    6    0    0
 39      1     6       6    6    0    0
 40      1     3       3    0    0    0
 41      1     1       3    0   10    0
 42      1     4       0    0    0    7
 43      1     8       0    0    9    1
 44      1     5       0    4    8    0
 45      1     5       8    0    0    0
 46      1     4       0    0    6    9
 47      1     1       0   10    0    2
 48      1     6       0    0    0    3
 49      1     1       0    0    9    0
 50      1     4       0    9    0    8
 51      1     8       7    5    7    0
 52      1     9       2    0    0    4
 53      1     3      10    3    0    6
 54      1    10       0    0    4    9
 55      1     5       0    0    9    0
 56      1     7       0    0    8    0
 57      1     3       4    7    8    0
 58      1     7       3    0    0    2
 59      1    10      10    0    5    7
 60      1     7       0    1    0    0
 61      1     6       0    0    6    5
 62      1     9       0    0    2    0
 63      1     8       3    0    5    0
 64      1     1       0    3    0    3
 65      1     5       2   10    0    2
 66      1     1       0    0    1    1
 67      1     6       0    9    0    2
 68      1     9      10    7    0    0
 69      1     8       4    0    5    0
 70      1     9       0   10    4    4
 71      1     2       0    7    0    9
 72      1     6       2    1    0    0
 73      1     7       2    7    0    0
 74      1     7       0    8    9    0
 75      1     5       0    0    5    0
 76      1     4      10    6    0    5
 77      1     4       0    3    0    0
 78      1     6       0    0    0    4
 79      1     4       1    6    0    3
 80      1    10       6    0    0    0
 81      1     4       3    4    0    0
 82      1     5       0    0    5    0
 83      1     3       0    8    0    4
 84      1     1       0   10    4    0
 85      1     1       0    0    9    6
 86      1     5       3    0    1   10
 87      1     7       4    0    4   10
 88      1     3       0    0    8    3
 89      1    10       0    3    7    0
 90      1     8       0    0    0    1
 91      1     1       3    3    0    9
 92      1     0       0    0    0    0
************************************************************************
RESOURCEAVAILABILITIES:
  R 1  R 2  R 3  R 4
   51   49   59   38
************************************************************************
